0001011011100001001
0001011011100001101
0001100001100000100
0001100011100000001
0001100011100000100
0001101001100000100
0001110001000010000
0001110001100110100
0001110001100110101
0001110011000010001
0001111001000010100
0011100001100010100
0011100011100000001
0011100011100000100
0011110001100000100
0011110001100110100
0011110011100000001
0011110011100000100
0011111001000010000
